
n_res = 6;
rcap = [48, 54, 53, 53, 718, 792];
rtype = [1, 1, 1, 1, 2, 2];
n_tasks = 50;
modes =  [{1, 2, 3, 4, 5, 6, 7, 8, 9}, {10, 11, 12, 13, 14, 15, 16, 17, 18}, {19, 20, 21, 22, 23, 24, 25, 26, 27}, {28, 29, 30, 31, 32, 33, 34, 35, 36}, {37, 38, 39, 40, 41, 42, 43, 44, 45}, {46, 47, 48, 49, 50, 51, 52, 53, 54}, {55, 56, 57, 58, 59, 60, 61, 62, 63}, {64, 65, 66, 67, 68, 69, 70, 71, 72}, {73, 74, 75, 76, 77, 78, 79, 80, 81}, {82, 83, 84, 85, 86, 87, 88, 89, 90}, {91, 92, 93, 94, 95, 96, 97, 98, 99}, {100, 101, 102, 103, 104, 105, 106, 107, 108}, {109, 110, 111, 112, 113, 114, 115, 116, 117}, {118, 119, 120, 121, 122, 123, 124, 125, 126}, {127, 128, 129, 130, 131, 132, 133, 134, 135}, {136, 137, 138, 139, 140, 141, 142, 143, 144}, {145, 146, 147, 148, 149, 150, 151, 152, 153}, {154, 155, 156, 157, 158, 159, 160, 161, 162}, {163, 164, 165, 166, 167, 168, 169, 170, 171}, {172, 173, 174, 175, 176, 177, 178, 179, 180}, {181, 182, 183, 184, 185, 186, 187, 188, 189}, {190, 191, 192, 193, 194, 195, 196, 197, 198}, {199, 200, 201, 202, 203, 204, 205, 206, 207}, {208, 209, 210, 211, 212, 213, 214, 215, 216}, {217, 218, 219, 220, 221, 222, 223, 224, 225}, {226, 227, 228, 229, 230, 231, 232, 233, 234}, {235, 236, 237, 238, 239, 240, 241, 242, 243}, {244, 245, 246, 247, 248, 249, 250, 251, 252}, {253, 254, 255, 256, 257, 258, 259, 260, 261}, {262, 263, 264, 265, 266, 267, 268, 269, 270}, {271, 272, 273, 274, 275, 276, 277, 278, 279}, {280, 281, 282, 283, 284, 285, 286, 287, 288}, {289, 290, 291, 292, 293, 294, 295, 296, 297}, {298, 299, 300, 301, 302, 303, 304, 305, 306}, {307, 308, 309, 310, 311, 312, 313, 314, 315}, {316, 317, 318, 319, 320, 321, 322, 323, 324}, {325, 326, 327, 328, 329, 330, 331, 332, 333}, {334, 335, 336, 337, 338, 339, 340, 341, 342}, {343, 344, 345, 346, 347, 348, 349, 350, 351}, {352, 353, 354, 355, 356, 357, 358, 359, 360}, {361, 362, 363, 364, 365, 366, 367, 368, 369}, {370, 371, 372, 373, 374, 375, 376, 377, 378}, {379, 380, 381, 382, 383, 384, 385, 386, 387}, {388, 389, 390, 391, 392, 393, 394, 395, 396}, {397, 398, 399, 400, 401, 402, 403, 404, 405}, {406, 407, 408, 409, 410, 411, 412, 413, 414}, {415, 416, 417, 418, 419, 420, 421, 422, 423}, {424, 425, 426, 427, 428, 429, 430, 431, 432}, {433, 434, 435, 436, 437, 438, 439, 440, 441}, {442, 443, 444, 445, 446, 447, 448, 449, 450}];
succ =  [{9, 8, 6, 3}, {8, 5}, {24, 16, 14, 12, 11, 10}, {14, 12, 6}, {11, 10, 9}, {24, 21, 19, 16, 15, 11}, {24, 15, 12, 11}, {24, 15, 14, 12}, {24, 21, 17, 16, 13}, {26, 21, 19, 15}, {22, 17, 13}, {13}, {31, 26, 25, 18}, {31, 26, 22, 20}, {31, 22, 18}, {31, 26, 25, 20}, {31, 20}, {20}, {20}, {32, 28, 27, 23}, {31, 30, 28, 27, 25}, {33, 32, 29, 27, 25}, {42, 34, 33, 30, 29}, {33, 31, 30, 27}, {42, 38, 37, 35, 34}, {42, 36, 29}, {50, 42, 41, 38, 35, 34}, {40, 38, 37, 36, 33}, {43, 38, 37, 35}, {50, 36, 35}, {50, 42, 35}, {50, 43, 40, 38}, {50, 49, 47, 46, 43, 39}, {49, 47, 36}, {49, 47, 40, 39}, {46, 43, 39}, {50, 46, 41}, {49, 47, 46, 45, 44}, {48, 45, 44}, {48, 46, 44}, {47, 45, 44}, {45, 43}, {44}, {}, {}, {}, {}, {}, {}, {}];
n_opt = 450;
dur = [1, 4, 7, 9, 23, 24, 27, 29, 30, 4, 12, 15, 16, 17, 18, 20, 21, 22, 2, 4, 6, 12, 14, 21, 24, 25, 27, 3, 6, 7, 9, 12, 13, 17, 24, 25, 6, 11, 12, 13, 17, 18, 19, 20, 22, 3, 8, 9, 10, 11, 14, 15, 16, 26, 2, 6, 9, 11, 16, 18, 19, 25, 27, 2, 3, 5, 12, 20, 21, 22, 23, 29, 1, 6, 10, 13, 14, 18, 21, 22, 24, 2, 5, 8, 9, 10, 15, 17, 19, 30, 2, 8, 11, 13, 16, 23, 27, 29, 30, 10, 14, 15, 16, 17, 19, 20, 24, 27, 3, 4, 17, 21, 23, 24, 28, 29, 30, 3, 4, 14, 17, 21, 25, 27, 28, 29, 7, 11, 12, 15, 20, 25, 26, 27, 28, 1, 11, 17, 21, 23, 24, 27, 28, 29, 5, 8, 9, 10, 13, 16, 18, 19, 23, 2, 4, 5, 12, 13, 14, 16, 21, 25, 7, 8, 11, 13, 15, 16, 21, 26, 29, 9, 12, 15, 18, 19, 23, 24, 26, 27, 3, 7, 9, 14, 16, 18, 19, 21, 26, 4, 6, 12, 14, 18, 19, 20, 26, 28, 1, 2, 9, 10, 11, 12, 15, 17, 24, 1, 2, 8, 10, 11, 21, 24, 29, 30, 1, 2, 4, 9, 20, 24, 25, 27, 30, 5, 7, 10, 11, 13, 14, 16, 17, 20, 1, 6, 10, 14, 17, 19, 20, 21, 26, 3, 11, 13, 15, 22, 23, 24, 25, 26, 3, 9, 13, 19, 20, 21, 25, 26, 27, 5, 9, 10, 18, 20, 25, 26, 27, 30, 1, 2, 3, 4, 11, 15, 17, 20, 22, 2, 4, 9, 10, 18, 23, 27, 29, 30, 2, 3, 7, 18, 19, 20, 23, 26, 29, 1, 4, 9, 13, 15, 22, 26, 28, 30, 6, 8, 10, 13, 14, 16, 18, 19, 24, 1, 2, 3, 6, 9, 20, 26, 28, 29, 3, 4, 5, 7, 10, 11, 13, 19, 23, 2, 3, 4, 11, 13, 15, 19, 20, 26, 2, 3, 8, 12, 15, 18, 21, 26, 27, 6, 14, 15, 16, 22, 23, 26, 27, 28, 7, 13, 16, 17, 18, 20, 21, 29, 30, 4, 5, 9, 15, 17, 19, 22, 23, 28, 2, 6, 9, 11, 12, 15, 21, 23, 28, 2, 4, 12, 15, 19, 24, 25, 26, 27, 2, 3, 15, 18, 20, 22, 24, 25, 28, 1, 3, 7, 11, 12, 15, 27, 28, 29, 4, 5, 7, 10, 11, 14, 22, 24, 27, 3, 4, 5, 6, 8, 11, 15, 19, 20, 1, 9, 10, 11, 12, 18, 19, 22, 30, 5, 6, 9, 10, 11, 14, 25, 26, 27];
rreq = [|25, 25, 24, 23, 21, 21, 20, 19, 18, 25, 20, 18, 17, 15, 12, 10, 10, 8, 16, 15, 13, 13, 12, 11, 9, 8, 8, 23, 21, 21, 19, 17, 12, 12, 9, 8, 17, 17, 15, 12, 10, 9, 5, 5, 2, 10, 10, 10, 10, 10, 9, 9, 9, 9, 28, 28, 28, 27, 27, 26, 26, 25, 25, 21, 17, 16, 13, 10, 9, 8, 3, 2, 17, 17, 17, 17, 17, 17, 17, 17, 17, 29, 27, 25, 24, 22, 21, 21, 20, 19, 13, 10, 10, 9, 8, 6, 5, 5, 4, 14, 14, 14, 13, 13, 13, 13, 12, 12, 5, 4, 4, 4, 4, 3, 3, 3, 3, 11, 10, 9, 9, 8, 7, 7, 5, 5, 13, 13, 13, 13, 13, 12, 12, 12, 12, 19, 16, 14, 11, 9, 9, 7, 5, 3, 27, 27, 26, 25, 24, 23, 21, 21, 20, 26, 26, 26, 26, 25, 25, 25, 25, 25, 27, 27, 27, 27, 27, 26, 26, 26, 26, 27, 27, 25, 21, 21, 19, 15, 14, 12, 25, 20, 20, 18, 16, 12, 9, 7, 5, 18, 17, 17, 15, 15, 14, 13, 12, 12, 23, 19, 18, 16, 11, 9, 7, 6, 2, 17, 15, 15, 13, 12, 12, 11, 10, 9, 19, 19, 18, 17, 17, 17, 16, 16, 15, 24, 24, 24, 23, 23, 22, 22, 21, 21, 17, 16, 14, 14, 11, 11, 9, 8, 8, 23, 23, 20, 20, 18, 16, 15, 12, 12, 13, 11, 10, 9, 7, 5, 5, 3, 1, 13, 11, 10, 8, 6, 6, 5, 2, 1, 17, 17, 14, 13, 10, 9, 6, 3, 1, 18, 17, 16, 15, 14, 13, 12, 11, 11, 24, 22, 18, 16, 14, 12, 9, 8, 4, 14, 12, 12, 12, 11, 10, 10, 10, 9, 29, 28, 27, 25, 25, 25, 23, 23, 22, 27, 26, 24, 23, 23, 22, 21, 20, 19, 7, 6, 5, 5, 4, 3, 3, 2, 2, 16, 15, 14, 14, 13, 13, 12, 11, 11, 23, 19, 19, 15, 15, 12, 9, 8, 5, 28, 27, 25, 25, 22, 21, 20, 18, 17, 26, 21, 19, 16, 13, 10, 8, 6, 1, 17, 16, 16, 16, 15, 14, 14, 13, 13, 24, 22, 21, 21, 20, 18, 17, 17, 15, 26, 24, 20, 19, 14, 12, 10, 7, 7, 10, 10, 10, 10, 10, 9, 9, 9, 9, 9, 8, 8, 8, 8, 7, 7, 7, 7, 17, 17, 17, 17, 17, 17, 17, 17, 17, 29, 27, 27, 25, 24, 23, 22, 21, 21, 16, 16, 16, 16, 15, 15, 15, 14, 14, 28, 23, 21, 20, 14, 14, 10, 8, 5
 |22, 21, 20, 19, 19, 19, 18, 17, 17, 22, 21, 20, 20, 19, 19, 17, 16, 16, 18, 17, 17, 17, 16, 16, 15, 14, 14, 17, 16, 15, 14, 13, 12, 10, 10, 9, 23, 22, 20, 18, 17, 15, 11, 11, 8, 28, 24, 21, 17, 15, 11, 8, 4, 2, 14, 11, 11, 10, 7, 5, 5, 4, 1, 9, 8, 6, 6, 5, 4, 3, 3, 2, 18, 16, 16, 16, 15, 14, 14, 12, 12, 12, 11, 11, 10, 8, 7, 7, 6, 5, 24, 24, 22, 22, 21, 20, 19, 17, 17, 28, 27, 26, 26, 25, 24, 24, 24, 23, 28, 24, 24, 21, 18, 18, 16, 13, 12, 20, 20, 19, 17, 17, 16, 14, 14, 13, 15, 12, 12, 10, 9, 8, 8, 7, 6, 26, 24, 20, 20, 17, 17, 13, 12, 11, 15, 15, 15, 14, 14, 13, 13, 12, 12, 21, 19, 19, 16, 15, 11, 11, 8, 6, 26, 23, 23, 20, 19, 18, 16, 14, 12, 24, 21, 19, 19, 16, 14, 14, 13, 11, 15, 15, 15, 14, 14, 14, 13, 13, 13, 23, 22, 21, 21, 19, 18, 16, 14, 14, 20, 19, 17, 17, 16, 15, 13, 13, 12, 17, 15, 14, 12, 12, 10, 10, 8, 7, 18, 18, 17, 16, 16, 16, 15, 15, 14, 26, 25, 25, 22, 21, 20, 20, 18, 16, 20, 20, 18, 17, 14, 14, 11, 11, 9, 17, 16, 16, 15, 15, 14, 13, 13, 13, 17, 14, 14, 12, 12, 10, 9, 7, 7, 26, 25, 25, 23, 23, 22, 21, 19, 19, 24, 21, 21, 19, 19, 18, 16, 15, 14, 26, 24, 24, 22, 21, 21, 19, 19, 18, 14, 13, 12, 12, 10, 10, 8, 7, 7, 25, 25, 25, 25, 25, 24, 24, 24, 24, 28, 24, 23, 20, 15, 15, 13, 8, 7, 30, 29, 28, 28, 27, 27, 26, 25, 25, 8, 7, 7, 6, 6, 5, 4, 4, 4, 25, 24, 24, 24, 24, 24, 24, 24, 24, 29, 26, 24, 18, 16, 15, 11, 9, 5, 15, 13, 11, 10, 8, 7, 5, 4, 1, 29, 29, 28, 27, 27, 26, 26, 24, 24, 18, 18, 18, 18, 18, 18, 18, 18, 18, 27, 26, 25, 24, 22, 20, 20, 18, 18, 22, 22, 22, 21, 21, 21, 21, 20, 20, 22, 21, 20, 19, 17, 17, 16, 14, 13, 27, 24, 23, 20, 16, 16, 11, 11, 9, 10, 9, 8, 8, 7, 7, 5, 5, 4, 25, 25, 25, 25, 25, 25, 25, 25, 25, 14, 13, 10, 9, 7, 6, 5, 3, 1, 21, 20, 19, 16, 16, 14, 12, 12, 9
 |29, 27, 24, 23, 21, 17, 15, 14, 11, 27, 25, 22, 19, 15, 14, 9, 9, 5, 25, 24, 20, 18, 14, 10, 8, 4, 2, 2, 2, 2, 2, 2, 2, 2, 2, 2, 25, 22, 20, 19, 18, 15, 14, 12, 10, 18, 16, 14, 14, 12, 9, 7, 5, 4, 29, 27, 24, 22, 20, 18, 17, 15, 12, 23, 21, 20, 17, 15, 13, 11, 10, 8, 17, 14, 14, 13, 12, 11, 9, 8, 7, 16, 16, 16, 16, 16, 15, 15, 15, 15, 25, 24, 23, 22, 22, 22, 21, 21, 20, 21, 21, 19, 19, 17, 17, 15, 14, 14, 12, 11, 11, 10, 10, 9, 9, 8, 8, 5, 5, 5, 5, 5, 5, 5, 5, 5, 28, 26, 26, 26, 24, 24, 23, 22, 22, 26, 23, 21, 18, 16, 13, 11, 8, 5, 28, 27, 27, 26, 26, 26, 25, 25, 25, 25, 24, 23, 19, 16, 16, 14, 10, 8, 20, 18, 17, 16, 16, 14, 13, 13, 12, 20, 19, 18, 16, 13, 12, 10, 10, 8, 25, 22, 20, 16, 13, 11, 9, 6, 4, 24, 23, 23, 23, 22, 22, 21, 21, 21, 22, 22, 20, 16, 15, 14, 10, 10, 7, 5, 5, 5, 5, 5, 5, 5, 5, 5, 24, 24, 21, 20, 18, 14, 13, 12, 10, 28, 26, 25, 25, 24, 23, 22, 20, 20, 13, 13, 13, 13, 13, 13, 13, 13, 13, 24, 23, 22, 21, 21, 21, 20, 20, 19, 15, 15, 15, 15, 15, 15, 15, 15, 15, 17, 16, 16, 16, 16, 16, 16, 16, 16, 22, 21, 17, 16, 11, 9, 8, 3, 3, 29, 29, 28, 28, 27, 27, 27, 26, 26, 4, 3, 3, 3, 3, 3, 3, 3, 3, 26, 25, 21, 19, 16, 13, 8, 7, 5, 29, 26, 20, 17, 13, 10, 8, 5, 3, 22, 18, 17, 15, 10, 8, 8, 3, 3, 14, 14, 14, 13, 13, 13, 13, 12, 12, 26, 24, 23, 21, 20, 18, 18, 15, 14, 28, 25, 22, 18, 16, 15, 11, 7, 6, 21, 20, 20, 20, 19, 19, 19, 19, 19, 8, 8, 8, 8, 8, 8, 8, 8, 8, 12, 12, 11, 9, 9, 8, 8, 6, 6, 13, 13, 13, 13, 13, 12, 12, 12, 12, 18, 17, 17, 15, 14, 14, 13, 12, 11, 15, 15, 15, 15, 15, 15, 15, 15, 15, 20, 18, 15, 14, 12, 8, 6, 4, 1, 27, 24, 22, 18, 18, 14, 13, 10, 5, 28, 23, 23, 20, 19, 16, 14, 11, 8, 30, 30, 30, 30, 30, 30, 30, 30, 30, 27, 25, 21, 19, 17, 15, 13, 10, 9
 |12, 12, 12, 12, 12, 11, 11, 11, 11, 16, 16, 15, 14, 13, 12, 12, 10, 10, 21, 17, 15, 15, 11, 10, 5, 3, 1, 24, 23, 23, 22, 21, 20, 20, 18, 18, 9, 8, 8, 8, 6, 6, 6, 5, 4, 27, 25, 24, 23, 23, 21, 20, 20, 19, 18, 17, 14, 11, 10, 8, 8, 5, 3, 26, 25, 25, 22, 21, 19, 19, 16, 15, 28, 24, 23, 20, 16, 13, 10, 7, 4, 26, 26, 26, 25, 25, 24, 23, 23, 23, 15, 14, 14, 14, 14, 14, 14, 14, 14, 10, 9, 9, 9, 8, 7, 6, 6, 5, 23, 23, 23, 23, 23, 23, 23, 23, 23, 20, 17, 17, 15, 13, 12, 10, 10, 9, 25, 25, 25, 25, 25, 24, 24, 24, 24, 10, 9, 9, 9, 8, 8, 8, 8, 8, 23, 21, 21, 20, 19, 19, 18, 18, 17, 13, 12, 12, 11, 11, 11, 11, 10, 10, 21, 19, 17, 16, 16, 14, 13, 12, 12, 25, 21, 21, 19, 15, 14, 11, 10, 9, 26, 26, 23, 20, 19, 18, 15, 15, 12, 28, 25, 25, 21, 21, 18, 17, 15, 12, 26, 24, 21, 21, 18, 17, 14, 14, 11, 21, 20, 20, 19, 17, 17, 15, 14, 14, 27, 26, 26, 25, 22, 22, 21, 19, 18, 29, 27, 26, 25, 24, 23, 22, 21, 21, 24, 24, 22, 21, 21, 19, 18, 17, 16, 5, 4, 4, 3, 3, 2, 2, 1, 1, 19, 19, 18, 17, 16, 15, 14, 13, 12, 28, 27, 27, 26, 26, 25, 24, 23, 23, 23, 22, 21, 17, 17, 16, 13, 11, 10, 22, 21, 17, 15, 12, 10, 7, 7, 5, 19, 18, 17, 13, 12, 10, 8, 3, 1, 27, 22, 19, 17, 15, 12, 8, 4, 3, 21, 21, 19, 17, 16, 14, 14, 11, 11, 27, 25, 23, 20, 17, 15, 10, 9, 5, 20, 19, 18, 18, 17, 16, 16, 16, 15, 27, 26, 22, 20, 19, 17, 15, 12, 12, 24, 24, 23, 23, 22, 22, 22, 21, 21, 28, 26, 22, 20, 18, 16, 14, 10, 6, 11, 10, 9, 7, 6, 5, 5, 3, 3, 24, 22, 20, 15, 15, 13, 7, 6, 3, 25, 22, 21, 20, 16, 15, 12, 9, 7, 16, 15, 15, 15, 15, 14, 14, 14, 14, 24, 21, 19, 18, 14, 13, 9, 7, 5, 22, 18, 16, 15, 12, 10, 6, 4, 3, 30, 26, 25, 23, 22, 19, 17, 14, 14, 20, 20, 20, 19, 18, 18, 17, 17, 17, 28, 25, 24, 21, 17, 16, 15, 13, 10, 26, 26, 26, 26, 26, 26, 26, 26, 26
 |7, 7, 7, 6, 6, 6, 6, 5, 5, 29, 27, 25, 24, 23, 22, 19, 19, 16, 17, 14, 14, 12, 10, 9, 8, 7, 5, 9, 8, 7, 7, 7, 6, 5, 5, 5, 28, 28, 27, 27, 26, 26, 26, 25, 25, 16, 16, 16, 16, 16, 16, 16, 16, 16, 20, 17, 17, 15, 13, 10, 7, 6, 4, 20, 18, 16, 15, 14, 12, 10, 10, 8, 28, 27, 25, 24, 22, 21, 21, 20, 19, 15, 14, 14, 13, 13, 13, 13, 12, 12, 17, 15, 15, 14, 13, 11, 11, 10, 9, 11, 11, 11, 10, 10, 9, 8, 8, 8, 13, 12, 12, 11, 11, 11, 10, 10, 9, 3, 3, 3, 2, 2, 2, 2, 1, 1, 28, 27, 27, 25, 22, 21, 21, 18, 18, 26, 24, 23, 22, 22, 21, 20, 19, 18, 19, 18, 17, 16, 16, 16, 15, 14, 13, 20, 19, 19, 17, 16, 16, 14, 14, 13, 8, 8, 7, 6, 5, 4, 4, 2, 2, 6, 5, 5, 4, 4, 4, 3, 3, 2, 15, 15, 13, 12, 12, 10, 9, 9, 7, 27, 27, 26, 25, 24, 23, 23, 22, 21, 23, 21, 18, 15, 15, 13, 10, 6, 5, 24, 24, 23, 23, 22, 22, 21, 21, 21, 29, 28, 28, 28, 28, 28, 28, 28, 28, 20, 19, 19, 18, 16, 15, 14, 14, 12, 24, 23, 20, 18, 17, 15, 12, 10, 9, 5, 4, 3, 3, 2, 2, 2, 1, 1, 26, 25, 24, 23, 22, 21, 20, 19, 18, 27, 26, 23, 20, 19, 18, 15, 14, 11, 12, 12, 10, 9, 9, 7, 6, 4, 3, 22, 20, 19, 19, 17, 16, 16, 15, 14, 28, 26, 25, 22, 18, 18, 13, 12, 10, 4, 4, 4, 3, 2, 2, 1, 1, 1, 26, 24, 18, 17, 15, 9, 9, 3, 3, 17, 17, 17, 17, 17, 17, 17, 17, 17, 21, 16, 14, 12, 11, 8, 8, 5, 2, 27, 25, 23, 22, 19, 18, 17, 15, 14, 17, 15, 15, 12, 12, 10, 9, 5, 5, 27, 26, 22, 22, 20, 17, 15, 14, 11, 19, 18, 17, 14, 12, 12, 10, 9, 8, 22, 19, 18, 15, 14, 11, 11, 7, 5, 14, 12, 10, 10, 8, 7, 5, 3, 2, 12, 11, 10, 8, 7, 7, 6, 5, 4, 28, 27, 27, 27, 27, 27, 27, 27, 27, 13, 12, 11, 10, 10, 9, 9, 9, 8, 17, 15, 13, 12, 10, 8, 7, 5, 3, 6, 6, 6, 5, 5, 5, 4, 4, 4, 5, 4, 3, 3, 3, 2, 1, 1, 1, 29, 29, 29, 29, 28, 28, 28, 28, 28
 |26, 25, 23, 22, 22, 19, 19, 16, 16, 8, 8, 8, 8, 8, 8, 8, 8, 8, 27, 27, 27, 27, 27, 27, 27, 27, 27, 27, 26, 22, 20, 19, 15, 12, 12, 7, 25, 22, 22, 21, 18, 17, 15, 14, 13, 9, 8, 7, 7, 6, 6, 5, 4, 4, 26, 23, 23, 22, 19, 18, 17, 17, 15, 17, 16, 15, 15, 14, 13, 11, 10, 10, 29, 25, 22, 19, 17, 11, 8, 7, 2, 27, 26, 24, 23, 22, 20, 17, 17, 15, 26, 24, 22, 22, 20, 18, 18, 16, 14, 17, 16, 15, 13, 13, 11, 10, 9, 8, 10, 10, 9, 9, 9, 9, 8, 8, 8, 19, 15, 14, 13, 10, 8, 7, 6, 4, 10, 9, 7, 6, 5, 5, 4, 2, 2, 27, 27, 27, 27, 26, 26, 25, 25, 25, 29, 29, 29, 29, 29, 28, 28, 28, 28, 22, 21, 19, 15, 11, 10, 7, 5, 3, 29, 29, 29, 29, 28, 28, 27, 27, 27, 22, 20, 16, 15, 13, 10, 9, 5, 3, 27, 24, 22, 16, 15, 13, 7, 5, 2, 18, 18, 18, 18, 17, 17, 17, 16, 16, 23, 19, 18, 15, 13, 12, 9, 9, 5, 15, 13, 13, 11, 10, 7, 7, 3, 2, 12, 12, 11, 10, 8, 7, 6, 5, 5, 13, 13, 13, 13, 13, 12, 12, 12, 12, 18, 17, 17, 16, 16, 15, 14, 14, 14, 13, 13, 12, 12, 11, 11, 10, 10, 9, 26, 24, 23, 22, 20, 17, 16, 13, 11, 25, 23, 20, 19, 16, 13, 13, 10, 9, 26, 21, 20, 17, 15, 12, 11, 9, 6, 11, 11, 11, 11, 11, 11, 11, 11, 11, 29, 27, 24, 23, 22, 19, 17, 17, 14, 15, 12, 11, 11, 9, 8, 7, 6, 4, 26, 25, 25, 24, 24, 24, 23, 22, 22, 27, 25, 23, 18, 16, 14, 13, 9, 6, 11, 9, 8, 7, 6, 5, 3, 2, 1, 15, 13, 13, 12, 11, 11, 11, 10, 9, 4, 3, 3, 3, 3, 2, 2, 2, 2, 29, 29, 29, 29, 29, 29, 29, 29, 29, 7, 6, 6, 6, 6, 5, 5, 5, 5, 22, 21, 21, 21, 20, 20, 20, 20, 20, 22, 21, 21, 20, 19, 17, 17, 16, 15, 20, 19, 17, 16, 14, 13, 12, 9, 8, 21, 20, 20, 19, 18, 18, 17, 15, 15, 21, 20, 19, 17, 14, 12, 8, 6, 4, 26, 25, 22, 20, 14, 13, 9, 6, 2, 25, 24, 22, 22, 21, 21, 20, 19, 18, 26, 25, 24, 24, 22, 22, 21, 20, 19, 24, 24, 24, 23, 23, 23, 23, 22, 22|];